33D32945 STP File, STP Format Version 1.0

SECTION Comments
Name "shell_n13_d3_s30"
Problem "Euclidean Steiner Tree Problem"
Remark "Generated with STPGenerator. 3 dimensions."
END

SECTION Graph
Nodes 13
END

SECTION Coordinates
DDD 0 -0.5855957489 0.8018619176 0.1187227190
DDD 1 0.6569745018 0.6981955167 0.2844424799
DDD 2 0.0088808172 0.6148030017 0.7886307122
DDD 3 -0.5644986906 -0.2261237812 0.7938572063
DDD 4 -0.7519411241 -0.5924487795 0.2891176050
DDD 5 -0.4695362423 -0.5007206332 -0.7271963728
DDD 6 -0.6675402179 0.4789127205 -0.5701163598
DDD 7 -0.2449886137 -0.0658523201 -0.9672869539
DDD 8 0.3609061647 0.7250659613 0.5865373748
DDD 9 -0.1162683156 0.7165942056 -0.6877313598
DDD 10 -0.5072950418 0.4553804945 -0.7316285572
DDD 11 0.0014812698 0.9628652030 0.2699785300
DDD 12 -0.0695367143 -0.7573520670 -0.6492938410
END
